54714
53, 34, 54, 47, 30, 4, 18, 12, 9, 14, 2, 42, 33, 1, 27, 31, 25, 11, 45, 52, 15, 36, 46, 39, 16, 10, 22, 29, 21, 23, 17, 48, 19, 32, 41, 24, 35, 5, 37, 51, 13, 43, 40, 7, 20, 50, 38, 8, 44, 49, 3, 6, 28, 55, 26
